SAT
1 10 89 -3 11 -68 21 71 86 53 -45 -87 -44 18 -39 81 -57 28 -31 42 -78 -93 90 75 -9 -64 -2 -27 67 38 -51 -100 52 30 -66 -20 -22 -32 -98 34 -55 -41 -13 -95 14 -97 -43 96 72 15 -26 35 -77 91 -82 47 70 -25 -79 12 -49 -84 -59 4 -8 40 61 56 88 54 19 -48 5 -92 17 -33 -94 24 -74 23 -37 29 -50 -83 85 -65 -6 -46 16 63 60 62 80 58 -99 36 -69 73 7 76 0
